RT is False
Default write of storage_offers_DA.csv just to have a file (but constraint should be inactive)
Reading model...
...model read.
creating competitive generators file...
...competitive generators recorded.
Loading data...
.. day-ahead data with real-time VRE data read.
Compiling instance...
...instance created.
Creating Offer Mitigation (model will solve as dispatch if TRUE)...
Solving...

Welcome to IBM(R) ILOG(R) CPLEX(R) Interactive Optimizer 12.8.0.0
  with Simplex, Mixed Integer & Barrier Optimizers
5725-A06 5725-A29 5724-Y48 5724-Y49 5724-Y54 5724-Y55 5655-Y21
Copyright IBM Corp. 1988, 2017.  All Rights Reserved.

Type 'help' for a list of available commands.
Type 'help' followed by a command name for more
information on commands.

CPLEX> Logfile 'cplex.log' closed.
Logfile 'C:\Users\llavi\Desktop\test919\logs\tmp71zngrmc.cplex.log' open.
CPLEX> New value for parallel optimization mode: -1
CPLEX> New value for mixed integer optimality gap tolerance: 0.01
CPLEX> New value for integrality tolerance: 1e-09
CPLEX> New value for feasibility tolerance: 0.01
CPLEX> New value for deterministic time limit in ticks: 75000
CPLEX> Problem 'C:\Users\llavi\Desktop\test919\logs\tmph34j455s.pyomo.lp' read.
Read time = 0.08 sec. (3.03 ticks)
CPLEX> Problem name         : C:\Users\llavi\Desktop\test919\logs\tmph34j455s.pyomo.lp
Objective sense      : Minimize
Variables            :   26465  [Nneg: 1,  Box: 22000,  Free: 4464]
Objective nonzeros   :    2496
Linear constraints   :   27515  [Less: 14006,  Greater: 4416,  Equal: 9093]
  Nonzeros           :   89171
  RHS nonzeros       :   12256

Variables            : Min LB: -5000.000        Max UB: 1000000.       
Objective nonzeros   : Min   : 15.73158         Max   : 124.0997       
Linear constraints   :
  Nonzeros           : Min   : 0.8500000        Max   : 3000.000       
  RHS nonzeros       : Min   : 0.4250000        Max   : 5000.000       
CPLEX> CPXPARAM_Simplex_Tolerances_Feasibility          0.01
CPXPARAM_Parallel                                -1
CPXPARAM_DetTimeLimit                            75000
CPXPARAM_MIP_Tolerances_MIPGap                   0.01
CPXPARAM_MIP_Tolerances_Integrality              1.0000000000000001e-09
Parallel mode: opportunistic, using up to 4 threads for concurrent optimization.
Tried aggregator 1 time.
LP Presolve eliminated 21401 rows and 15895 columns.
Aggregator did 727 substitutions.
Reduced LP has 5387 rows, 9843 columns, and 31756 nonzeros.
Presolve time = 0.05 sec. (22.47 ticks)

Iteration log . . .
Iteration:     1   Dual objective     =             0.000000
Perturbation started.
Iteration:   101   Dual objective     =             0.000000
Iteration:   365   Dual objective     =             1.377089
Iteration:   659   Dual objective     =             1.988474
Iteration:   961   Dual objective     =             2.138026
Iteration:  1156   Dual objective     =             2.253712
Iteration:  1512   Dual objective     =             2.316687
Iteration:  1816   Dual objective     =             2.351232
Iteration:  2112   Dual objective     =             2.375367
Iteration:  2414   Dual objective     =         11881.024841
Iteration:  2725   Dual objective     =         11881.034671
Iteration:  3078   Dual objective     =         24128.183312
Iteration:  3465   Dual objective     =         33370.883584
Iteration:  3799   Dual objective     =         62659.665862
Iteration:  4140   Dual objective     =         75044.875207
Removing perturbation.

Dual simplex solved model.


Dual simplex - Optimal:  Objective =  7.7827764918e+04
Solution time =    0.19 sec.  Iterations = 4511 (0)
Deterministic time = 96.48 ticks  (515.96 ticks/sec)

CPLEX> Solution written to file 'C:\Users\llavi\Desktop\test919\logs\tmp8b3csnds.cplex.sol'.
CPLEX> Exporting results... 
...storage offer mitigation file created
Converting model to MPEC...
...converted
NOTE: initial MIP solve with only storage competitive to get feasible solution
Solving...

Welcome to IBM(R) ILOG(R) CPLEX(R) Interactive Optimizer 12.8.0.0
  with Simplex, Mixed Integer & Barrier Optimizers
5725-A06 5725-A29 5724-Y48 5724-Y49 5724-Y54 5724-Y55 5655-Y21
Copyright IBM Corp. 1988, 2017.  All Rights Reserved.

Type 'help' for a list of available commands.
Type 'help' followed by a command name for more
information on commands.

CPLEX> Logfile 'cplex.log' closed.
Logfile 'C:\Users\llavi\Desktop\test919\logs\tmpqgly75w3.cplex.log' open.
CPLEX> New value for parallel optimization mode: -1
CPLEX> New value for mixed integer optimality gap tolerance: 0.01
CPLEX> New value for integrality tolerance: 1e-09
CPLEX> New value for feasibility tolerance: 0.01
CPLEX> New value for deterministic time limit in ticks: 75000
CPLEX> Problem 'C:\Users\llavi\Desktop\test919\logs\tmp1ws4een8.pyomo.lp' read.
Read time = 0.27 sec. (13.96 ticks)
CPLEX> Problem name         : C:\Users\llavi\Desktop\test919\logs\tmp1ws4een8.pyomo.lp
Objective sense      : Maximize
Variables            :   53805  [Nneg: 1,  Box: 22000,  Free: 4464,
                                 Binary: 27340]
Objective nonzeros   :    9063
Linear constraints   :  123205  [Less: 41346,  Greater: 59096,  Equal: 22763]
  Nonzeros           :  291690
  RHS nonzeros       :   67420

Variables            : Min LB: -5000.000        Max UB: 1000000.       
Objective nonzeros   : Min   : 0.4250000        Max   : 2500.000       
Linear constraints   :
  Nonzeros           : Min   : 0.4250000        Max   : 1000000.       
  RHS nonzeros       : Min   : 0.4250000        Max   : 1000000.       
CPLEX> CPXPARAM_Simplex_Tolerances_Feasibility          0.01
CPXPARAM_Parallel                                -1
CPXPARAM_DetTimeLimit                            75000
CPXPARAM_MIP_Tolerances_MIPGap                   0.01
CPXPARAM_MIP_Tolerances_Integrality              1.0000000000000001e-09
Tried aggregator 3 times.
MIP Presolve eliminated 88741 rows and 19079 columns.
MIP Presolve added 3340 rows and 0 columns.
MIP Presolve modified 23864 coefficients.
Aggregator did 12966 substitutions.
Reduced MIP has 24838 rows, 21194 columns, and 70843 nonzeros.
Reduced MIP has 8389 binaries, 0 generals, 0 SOSs, and 0 indicators.
Presolve time = 0.27 sec. (165.23 ticks)
Probing fixed 385 vars, tightened 2861 bounds.
Probing time = 3.61 sec. (897.42 ticks)
Tried aggregator 2 times.
MIP Presolve eliminated 874 rows and 772 columns.
MIP Presolve modified 2219 coefficients.
Aggregator did 37 substitutions.
Reduced MIP has 23927 rows, 20385 columns, and 68212 nonzeros.
Reduced MIP has 8003 binaries, 0 generals, 0 SOSs, and 0 indicators.
Presolve time = 0.11 sec. (53.85 ticks)
Probing time = 0.06 sec. (15.08 ticks)
Clique table members: 6562.
MIP emphasis: balance optimality and feasibility.
MIP search method: dynamic search.
Parallel mode: opportunistic, using up to 4 threads.
Root relaxation solution time = 0.59 sec. (432.09 ticks)

        Nodes                                         Cuts/
   Node  Left     Objective  IInf  Best Integer    Best Bound    ItCnt     Gap

      0     0        0.0000   649                      0.0000     2724         
*     0+    0                            0.0000        0.0000             0.00%
      0     0        cutoff              0.0000        0.0000     2724    0.00%
Elapsed time = 5.98 sec. (1939.34 ticks, tree = 0.01 MB, solutions = 1)

Root node processing (before b&c):
  Real time             =    6.02 sec. (1941.60 ticks)
Parallel b&c, 4 threads:
  Real time             =    0.00 sec. (0.00 ticks)
  Sync time (average)   =    0.00 sec.
  Wait time (average)   =    0.00 sec.
                          ------------
Total (root+branch&cut) =    6.02 sec. (1941.60 ticks)

Solution pool: 1 solution saved.

MIP - Integer optimal solution:  Objective =  2.9904185794e-09
Solution time =    6.02 sec.  Iterations = 2724  Nodes = 0
Deterministic time = 1941.76 ticks  (322.77 ticks/sec)

CPLEX> Incumbent solution written to file 'C:\Users\llavi\Desktop\test919\logs\tmp_fbhuc4q.cplex.sol'.
CPLEX> NOTE: no warmstart specified for MIP iteration, default behavior is true
NOTE: resolving with all competitive generators using storage-only solution to warmstart
Solving...

Welcome to IBM(R) ILOG(R) CPLEX(R) Interactive Optimizer 12.8.0.0
  with Simplex, Mixed Integer & Barrier Optimizers
5725-A06 5725-A29 5724-Y48 5724-Y49 5724-Y54 5724-Y55 5655-Y21
Copyright IBM Corp. 1988, 2017.  All Rights Reserved.

Type 'help' for a list of available commands.
Type 'help' followed by a command name for more
information on commands.

CPLEX> Logfile 'cplex.log' closed.
Logfile 'C:\Users\llavi\Desktop\test919\logs\tmpg9g9bda1.cplex.log' open.
CPLEX> New value for parallel optimization mode: -1
CPLEX> New value for mixed integer optimality gap tolerance: 0.01
CPLEX> New value for integrality tolerance: 1e-09
CPLEX> New value for feasibility tolerance: 0.01
CPLEX> New value for deterministic time limit in ticks: 75000
CPLEX> Problem 'C:\Users\llavi\Desktop\test919\logs\tmpz8c0ajei.pyomo.lp' read.
Read time = 0.28 sec. (13.98 ticks)
CPLEX> MIP start file 'C:\Users\llavi\Desktop\test919\logs\tmpdpcj20sa.cplex.mst' read.
CPLEX> Problem name         : C:\Users\llavi\Desktop\test919\logs\tmpz8c0ajei.pyomo.lp
Objective sense      : Maximize
Variables            :   54525  [Nneg: 1,  Box: 22720,  Free: 4464,
                                 Binary: 27340]
Objective nonzeros   :    9759
Linear constraints   :  123205  [Less: 41346,  Greater: 59096,  Equal: 22763]
  Nonzeros           :  291690
  RHS nonzeros       :   67420

Variables            : Min LB: -5000.000        Max UB: 1000000.       
Objective nonzeros   : Min   : 0.4250000        Max   : 2500.000       
Linear constraints   :
  Nonzeros           : Min   : 0.4250000        Max   : 1000000.       
  RHS nonzeros       : Min   : 0.4250000        Max   : 1000000.       
CPLEX> CPXPARAM_Simplex_Tolerances_Feasibility          0.01
CPXPARAM_Parallel                                -1
CPXPARAM_DetTimeLimit                            75000
CPXPARAM_MIP_Tolerances_MIPGap                   0.01
CPXPARAM_MIP_Tolerances_Integrality              1.0000000000000001e-09
Warning:  No solution found from 1 MIP starts.
Retaining values of one MIP start for possible repair.
Tried aggregator 3 times.
MIP Presolve eliminated 88741 rows and 19799 columns.
MIP Presolve added 3340 rows and 0 columns.
MIP Presolve modified 23864 coefficients.
Aggregator did 12966 substitutions.
Reduced MIP has 24838 rows, 21194 columns, and 70843 nonzeros.
Reduced MIP has 8389 binaries, 0 generals, 0 SOSs, and 0 indicators.
Presolve time = 0.28 sec. (165.59 ticks)
Probing fixed 385 vars, tightened 2861 bounds.
Probing time = 3.73 sec. (897.42 ticks)
Tried aggregator 2 times.
MIP Presolve eliminated 874 rows and 772 columns.
MIP Presolve modified 2219 coefficients.
Aggregator did 37 substitutions.
Reduced MIP has 23927 rows, 20385 columns, and 68212 nonzeros.
Reduced MIP has 8003 binaries, 0 generals, 0 SOSs, and 0 indicators.
Presolve time = 0.11 sec. (53.86 ticks)
Probing time = 0.05 sec. (15.08 ticks)
Clique table members: 6562.
MIP emphasis: balance optimality and feasibility.
MIP search method: dynamic search.
Parallel mode: opportunistic, using up to 4 threads.
Root relaxation solution time = 0.59 sec. (480.42 ticks)

        Nodes                                         Cuts/
   Node  Left     Objective  IInf  Best Integer    Best Bound    ItCnt     Gap

      0     0   154720.7234   797                 154720.7234     2585         
      0     0   151941.9968   674                   Cuts: 639     2878         
      0     0   151278.3358   596                   Cuts: 194     3010         
      0     0   151158.5879   551                    Cuts: 90     3076         
      0     0   151097.8504   526                    Cuts: 60     3116         
      0     0   151097.8504   502                    Cuts: 48     3145         
      0     0   151097.8504   486                    Cuts: 39     3162         
      0     0   151097.8504   474                    Cuts: 33     3175         
      0     0   151097.8504   468                    Cuts: 20     3184         
      0     0   151097.8504   463                    Cuts: 12     3187         
Repair heuristic found nothing.
      0     2   151097.8504   463                 151013.2182     3187         
Elapsed time = 44.45 sec. (14165.35 ticks, tree = 0.04 MB, solutions = 0)
     48    26   126402.3151   423                 149492.9001     3978         
    129    83    90911.5700   375                 149492.9001     5599         
    185   107    84773.3281   379                 149492.9001     5846         
    261   157    55964.2231   378                 149492.9001     7008         
    339   185    infeasible                       149492.9001     7920         
    410   218    65574.6405   375                 149492.9001     9531         
    492   218    40931.0697   369                 149492.9001     9613         
    569   232    84701.3797   385                 149492.9001    10720         
    635   274    -4417.1160   336                 149492.9001    11903         
    941   519    13671.5596   233                 149492.9001    13862         
Elapsed time = 51.66 sec. (17291.36 ticks, tree = 4.77 MB, solutions = 0)
   1308   778   -14179.5639   202                 149492.9001    15884         
   1727  1320    14438.8060   349                 147546.5109    18165         
   2040  1517    33348.0399   283                 147437.5282    19084         
   2373  1809    92541.0724   399                 147437.5282    23437         
   2749  1993    15107.0621   214                 147437.5282    25261         
   3025  2261     8340.5097   218                 147437.5282    28078         
   3252  2466    -4073.1047   327                 146738.9059    34261         
   3556  2739    29884.5914   238                 146684.1217    37433         
   3671  2936    52916.1779   230                  69304.8721    45877         
   3866   169    25543.8953   203                  60460.9899    48077         
Elapsed time = 105.92 sec. (36523.64 ticks, tree = 4.46 MB, solutions = 0)
   4102   332   -65040.2172   161                  60460.9899    50138         
   4245   473   -15242.6735   160                  60460.9899    51919         
   4528   667    28406.1163   205                  60231.9444    53261         
   4797   926    -5167.0758   165                  60231.9444    56404         
   5091  1170   -19834.8346   160                  60057.3021    62133         
   5460  1406    33485.3309   150                  59927.4134    65620         
   5905  1824    28822.4402    19                  59927.4134    68104         
*  5963  1806      integral     0    28822.4402    59927.4134    68113  107.92%
   5973  1879   -50022.5657   180    28822.4402    59927.4134    69302  107.92%
   6052   441        cutoff          28822.4402    59927.4134    69543  107.92%
Elapsed time = 130.19 sec. (45921.45 ticks, tree = 9.93 MB, solutions = 1)
   6053   512    57219.4125   110    28822.4402    50611.0789    78388   75.60%
   6164    35        cutoff          28822.4402    50611.0789    81434   75.60%
   6282    79    35954.5909    97    28822.4402    48440.2291    83210   68.06%
   6428   167        cutoff          28822.4402    42674.6723    84508   48.06%
   6605   243    29582.7228    67    28822.4402    36924.8830    85377   28.11%
   6765   318    32598.8985    63    28822.4402    36744.0619    86772   27.48%
   6966   433    30252.0687    61    28822.4402    36653.4334    87707   27.17%
   7173   645    32652.3843    62    28822.4402    36648.4465    89045   27.15%
   7281   774    33149.4496    61    28822.4402    36644.4865    90271   27.14%
   7376   794    30848.7625    46    28822.4402    36644.4865    90709   27.14%
Elapsed time = 170.11 sec. (59397.93 ticks, tree = 20.60 MB, solutions = 1)
   7473   873    34675.9724    77    28822.4402    36644.4865    91597   27.14%
   7562   874    28852.3136    56    28822.4402    36644.4865    91550   27.14%
   7653   934    33586.2714    87    28822.4402    36644.4865    92130   27.14%
   7735  1015    29566.2860    60    28822.4402    36644.4865    93347   27.14%
   7846  1073    28868.3327    16    28822.4402    36644.4865    93524   27.14%
   7919  1137    32258.5796    61    28822.4402    36644.4865    94883   27.14%
   8020  1161    32418.8768    64    28822.4402    36644.4865    95178   27.14%
   8121  1193    30573.0516    47    28822.4402    36644.4865    95403   27.14%
   8216  1229    33214.7131    61    28822.4402    36644.4865    95827   27.14%
   8305  1252    35261.3471    61    28822.4402    36644.4865    96142   27.14%
Elapsed time = 190.48 sec. (68977.01 ticks, tree = 23.28 MB, solutions = 1)
   8403  1240    35289.9511    69    28822.4402    36644.4865    95418   27.14%
   8473   983    29202.8949    11    28822.4402    36644.4865    93121   27.14%
   8479   982        cutoff          28822.4402    36644.4865    93122   27.14%
   8487   983        cutoff          28822.4402    36644.4865    93118   27.14%

GUB cover cuts applied:  2
Cover cuts applied:  33
Implied bound cuts applied:  11
Flow cuts applied:  345
Mixed integer rounding cuts applied:  45
Gomory fractional cuts applied:  70

Root node processing (before b&c):
  Real time             =   44.00 sec. (14110.15 ticks)
Parallel b&c, 4 threads:
  Real time             =  148.81 sec. (61121.58 ticks)
  Sync time (average)   =    0.94 sec.
  Wait time (average)   =    0.04 sec.
                          ------------
Total (root+branch&cut) =  192.81 sec. (75231.73 ticks)

Solution pool: 1 solution saved.

MIP - Deterministic time limit exceeded, integer feasible:  Objective =  2.8822440200e+04
Current MIP best bound =  3.6644486458e+04 (gap = 7822.05, 27.14%)
Solution time =  192.81 sec.  Iterations = 99178  Nodes = 8494 (1589)
Deterministic time = 75231.88 ticks  (390.18 ticks/sec)

CPLEX> Incumbent solution written to file 'C:\Users\llavi\Desktop\test919\logs\tmp1884e6c7.cplex.sol'.
CPLEX> Exporting results... 
